0 84 83
1 92 92
2 95 96
3 80 100
4 93 101
5 93 103
6 87 101
7 92 100
8 106 105
9 99 103
10 102 104
11 102 105
12 86 107
13 86 106
14 69 104
15 73 100
16 79 99
17 83 96
18 73 94
19 87 91
20 83 88
21 81 87
22 79 86
23 56 82
24 71 80
25 37 79
26 70 78
27 55 77
28 68 75
29 63 75
30 66 71
31 51 70
32 35 68
33 63 67
34 59 64
35 48 64
36 41 61
37 45 57
38 48 54
39 48 48
40 26 51
41 22 50
42 36 48
43 42 46
44 40 45
45 44 46
46 34 44
47 34 43
48 35 43
49 36 40
50 32 36
51 36 37
52 34 39
53 32 37
54 38 37
55 26 26
56 21 28
57 16 27
58 20 26
59 13 24
60 27 27
61 16 23
62 19 21
63 9 21
64 16 20
65 16 19
66 18 20
67 8 17
68 10 17
69 7 14
70 10 11
71 8 9
72 7 6
73 3 5
74 3 7
75 7 7
76 6 6
77 6 6
78 4 4
79 6 6
80 2 3
81 2 2

